letting n =  10
letting blocks =  [[1, 6], [1, 10], [2, 5], [2, 8], [3, 3], [3, 4], [3, 9], [4, 1], [4, 3], [4, 8], [4, 9], [5, 2], [5, 5], [5, 10], [6, 4], [7, 9], [7, 10], [8, 3], [8, 4], [8, 10], [9, 3], [9, 9]]
